(set-logic BV) (define-fun origCir ((n327 Bool) (n325 Bool) (n254 Bool) (n207 Bool)) Bool (and n327 (xor n325 (not (and n254 n207))))) (synth-fun skel ((n327 Bool) (n325 Bool) (n254 Bool) (n207 Bool)) Bool) (declare-var n327 Bool) (declare-var n325 Bool) (declare-var n254 Bool) (declare-var n207 Bool) (constraint (= (origCir n327 n325 n254 n207) (skel n327 n325 n254 n207))) (check-synth)
